
Gurobi 9.0.3 (linux64, gurobi_cl) logging started Wed Aug 26 12:27:50 2020

Set parameter LogFile to value gurobi.log

Gurobi 9.0.3 (linux64, gurobi_cl) logging started Wed Aug 26 12:30:21 2020

Set parameter LogFile to value gurobi.log

Gurobi 9.0.3 (linux64, gurobi_cl) logging started Wed Aug 26 12:30:55 2020

Using license file /home/sapo/Templates/gurobi.lic
Set parameter LogFile to value gurobi.log
Academic license - for non-commercial use only

Gurobi 9.0.3 (linux64, gurobi_cl) logging started Wed Aug 26 12:32:16 2020

Set parameter LogFile to value gurobi.log

Gurobi 9.0.3 (linux64, gurobi_cl) logging started Wed Aug 26 12:32:30 2020

Using license file /home/sapo/Templates/gurobi.lic
Set parameter LogFile to value gurobi.log
Academic license - for non-commercial use only

Gurobi 9.0.3 (linux64, gurobi_cl) logging started Wed Aug 26 12:34:01 2020

Using license file /home/sapo/Templates/gurobi.lic
Set parameter LogFile to value gurobi.log
Academic license - for non-commercial use only
